c description: Random 3-CNF over 15 variables and 15 clauses
c generator: CNFgen (0.9.0)
c copyright: (C) 2012-2020 Massimo Lauria <massimo.lauria@uniroma1.it>
c url: https://massimolauria.net/cnfgen
c
p cnf 15 15
3 -5 10 0
-2 -13 15 0
-5 9 12 0
1 -5 -12 0
1 2 -14 0
7 -9 14 0
6 10 -13 0
3 -11 -12 0
4 6 -10 0
2 -13 15 0
-1 -11 12 0
-4 -7 -9 0
4 6 13 0
1 -11 -15 0
-2 4 9 0